
Gurobi 9.5.2 (mac64[arm]) logging started Mon May  1 22:13:28 2023

Set parameter LogFile to value "Java/output/special_iterative/scenario_seed_0_nJob_50_machineCount_2/mip_increment_1/log.txt"
Gurobi Optimizer version 9.5.2 build v9.5.2rc0 (mac64[arm])
Thread count: 8 physical cores, 8 logical processors, using up to 8 threads
Optimize a model with 3222 rows, 27666 columns and 368690 nonzeros
Model fingerprint: 0x52e12d32
Variable types: 0 continuous, 27666 integer (27666 binary)
Coefficient statistics:
  Matrix range     [1e+00, 3e+02]
  Objective range  [6e+01, 6e+06]
  Bounds range     [1e+00, 1e+00]
  RHS range        [1e+00, 1e+00]
Found heuristic solution: objective 2.144064e+07
Presolve removed 267 rows and 3219 columns
Presolve time: 0.40s
Presolved: 2955 rows, 24447 columns, 327063 nonzeros
Variable types: 0 continuous, 24447 integer (24447 binary)

Root relaxation: objective 1.244666e+04, 3486 iterations, 0.33 seconds (0.89 work units)

    Nodes    |    Current Node    |     Objective Bounds      |     Work
 Expl Unexpl |  Obj  Depth IntInf | Incumbent    BestBd   Gap | It/Node Time

     0     0 12446.6589    0  222 2.1441e+07 12446.6589   100%     -    0s
H    0     0                    1.851578e+07 12446.6589   100%     -    0s
H    0     0                    4694016.0000 12446.6589   100%     -    0s
H    0     0                    4693952.0000 12446.6589   100%     -    0s
     0     0 12498.7769    0  258 4693952.00 12498.7769   100%     -    1s
H    0     0                    1554064.0000 12498.7769  99.2%     -    3s
H    0     0                    13904.000000 12504.6303  10.1%     -    3s
     0     0 12504.6303    0  248 13904.0000 12504.6303  10.1%     -    4s
     0     0 12504.7566    0  259 13904.0000 12504.7566  10.1%     -    4s
     0     0 12534.6370    0  335 13904.0000 12534.6370  9.85%     -    4s
     0     0 12534.6370    0  227 13904.0000 12534.6370  9.85%     -    5s
H    0     0                    13888.000000 12534.6370  9.74%     -    5s
H    0     0                    13792.000000 12534.6370  9.12%     -    6s
     0     0 12534.6370    0  317 13792.0000 12534.6370  9.12%     -    6s
     0     0 12538.9851    0  318 13792.0000 12538.9851  9.09%     -    6s
     0     0 12542.0336    0  319 13792.0000 12542.0336  9.06%     -    6s
     0     0 12542.1021    0  320 13792.0000 12542.1021  9.06%     -    6s
     0     0 12542.1038    0  322 13792.0000 12542.1038  9.06%     -    6s
     0     0 12588.1338    0  394 13792.0000 12588.1338  8.73%     -    7s
     0     0 12593.3706    0  383 13792.0000 12593.3706  8.69%     -    7s
     0     0 12593.5219    0  398 13792.0000 12593.5219  8.69%     -    7s
     0     0 12593.5250    0  400 13792.0000 12593.5250  8.69%     -    7s
H    0     0                    13776.000000 12593.5250  8.58%     -    8s
H    0     0                    13632.000000 12593.5250  7.62%     -    8s
     0     0 12621.5239    0  431 13632.0000 12621.5239  7.41%     -    8s
H    0     0                    13472.000000 12621.5239  6.31%     -    8s
     0     0 12635.7377    0  444 13472.0000 12635.7377  6.21%     -    8s
H    0     0                    13456.000000 12635.7377  6.10%     -    8s
     0     0 12637.1947    0  446 13456.0000 12637.1947  6.09%     -    8s
     0     0 12637.4052    0  442 13456.0000 12637.4052  6.08%     -    9s
     0     0 12637.4092    0  446 13456.0000 12637.4092  6.08%     -    9s
H    0     0                    13408.000000 12637.4092  5.75%     -    9s
H    0     0                    13376.000000 12637.4092  5.52%     -    9s
     0     0 12659.9660    0  469 13376.0000 12659.9660  5.35%     -   10s
     0     0 12670.8180    0  489 13376.0000 12670.8180  5.27%     -   10s
H    0     0                    13360.000000 12670.8180  5.16%     -   10s
     0     0 12671.7986    0  491 13360.0000 12671.7986  5.15%     -   10s
     0     0 12672.1563    0  496 13360.0000 12672.1563  5.15%     -   10s
     0     0 12672.4237    0  499 13360.0000 12672.4237  5.15%     -   10s
     0     0 12672.4352    0  500 13360.0000 12672.4352  5.15%     -   10s
     0     0 12677.2990    0  489 13360.0000 12677.2990  5.11%     -   10s
     0     0 12677.9755    0  494 13360.0000 12677.9755  5.10%     -   10s
H    0     0                    13344.000000 12677.9755  4.99%     -   11s
     0     0 12678.2736    0  487 13344.0000 12678.2736  4.99%     -   11s
     0     0 12678.3963    0  500 13344.0000 12678.3963  4.99%     -   11s
     0     0 12682.4405    0  518 13344.0000 12682.4405  4.96%     -   11s
     0     0 12684.2519    0  541 13344.0000 12684.2519  4.94%     -   11s
     0     0 12684.6185    0  537 13344.0000 12684.6185  4.94%     -   11s
     0     0 12684.6525    0  552 13344.0000 12684.6525  4.94%     -   11s
     0     0 12687.8786    0  544 13344.0000 12687.8786  4.92%     -   11s
     0     0 12688.2848    0  534 13344.0000 12688.2848  4.91%     -   11s
     0     0 12688.5882    0  538 13344.0000 12688.5882  4.91%     -   12s
     0     0 12688.6008    0  538 13344.0000 12688.6008  4.91%     -   12s
     0     0 12692.0112    0  550 13344.0000 12692.0112  4.89%     -   12s
     0     0 12692.8222    0  563 13344.0000 12692.8222  4.88%     -   12s
     0     0 12693.1414    0  563 13344.0000 12693.1414  4.88%     -   12s
     0     0 12693.1863    0  576 13344.0000 12693.1863  4.88%     -   12s
     0     0 12695.1543    0  571 13344.0000 12695.1543  4.86%     -   12s
     0     0 12695.3101    0  577 13344.0000 12695.3101  4.86%     -   12s
     0     0 12695.4431    0  570 13344.0000 12695.4431  4.86%     -   12s
     0     0 12698.6149    0  592 13344.0000 12698.6149  4.84%     -   13s
     0     0 12699.2868    0  587 13344.0000 12699.2868  4.83%     -   13s
     0     0 12699.3825    0  606 13344.0000 12699.3825  4.83%     -   13s
H    0     0                    13296.000000 12699.3825  4.49%     -   13s
     0     0 12699.9230    0  589 13296.0000 12699.9230  4.48%     -   13s
     0     0 12699.9230    0  583 13296.0000 12699.9230  4.48%     -   13s
     0     2 12699.9230    0  582 13296.0000 12699.9230  4.48%     -   14s
     1     2 12699.9230    1  580 13296.0000 12699.9230  4.48%  47.0   15s
    88    79 12766.0998    9  483 13296.0000 12712.5452  4.39%   814   20s
H  143   115                    13168.000000 12715.1711  3.44%   779   22s
   201   159 12799.1404   16  433 13168.0000 12716.4952  3.43%   758   27s
H  204   159                    13088.000000 12716.4952  2.84%   752   27s
   290   238 12810.2988   20  437 13088.0000 12716.4952  2.84%   765   30s
H  341   269                    13040.000000 12716.4952  2.48%   758   32s
   468   369 12898.3111   33  397 13040.0000 12716.4952  2.48%   737   35s
   666   489 12932.2933   46  377 13040.0000 12716.4952  2.48%   716   40s
   925   684 12792.3425   19  419 13040.0000 12716.4952  2.48%   703   46s
  1132   807 12954.0636   20  383 13040.0000 12716.4952  2.48%   716   51s
  1253   916 12759.6726   13  476 13040.0000 12720.5242  2.45%   730   55s
  1458  1036 12744.1756    9  335 13040.0000 12720.5242  2.45%   727   60s
  1476  1048 12977.1950   61  612 13040.0000 12725.0685  2.42%   718   65s
  1498  1063 12932.8953   21  706 13040.0000 12744.0058  2.27%   707   70s
  1524  1080 12774.6870   14  724 13040.0000 12753.7023  2.20%   695   75s
  1543  1093 12882.5107   24  754 13040.0000 12768.2893  2.08%   687   80s
  1555  1101 12945.9134   36  781 13040.0000 12774.0482  2.04%   681   85s
  1573  1113 12833.3995   21  815 13040.0000 12779.0774  2.00%   674   90s
  1579  1120 12806.2433   13  694 13040.0000 12779.1365  2.00%   710  101s
  1581  1123 12827.0094   14  643 13040.0000 12785.1121  1.95%   711  107s
  1585  1130 12850.7189   15  590 13040.0000 12798.6770  1.85%   715  114s
  1593  1135 12859.4229   16  590 13040.0000 12800.3815  1.84%   727  116s
  1609  1146 12874.6799   17  566 13040.0000 12806.5501  1.79%   748  120s
  1646  1173 12903.8688   19  594 13040.0000 12808.4740  1.78%   780  126s
  1683  1194 12980.0211   20  505 13040.0000 12824.1901  1.65%   811  130s
  1724  1215 12936.4454   23  554 13040.0000 12825.2921  1.65%   846  135s
H 1728  1156                    13024.000000 12825.2921  1.53%   847  135s
  1764  1181 13010.4854   26  562 13024.0000 12825.2921  1.53%   881  141s
H 1773  1123                    13008.000000 12825.2921  1.40%   887  141s
  1804  1142 12989.6785   29  552 13008.0000 12825.2921  1.40%   895  145s
  1864  1162 12999.7764   35  474 13008.0000 12825.2921  1.40%   918  150s
H 1880  1104                    12992.000000 12825.2921  1.28%   920  150s
  1912  1119 12895.4460   18  629 12992.0000 12827.7659  1.26%   932  155s
H 1960  1069                    12976.000000 12827.7659  1.14%   950  159s
  1993  1074 12865.4889   21  692 12976.0000 12827.7659  1.14%   960  161s
  2056  1092 12863.3622   21  649 12976.0000 12827.7659  1.14%   970  166s
  2118  1111 12879.8448   23  588 12976.0000 12827.7659  1.14%   990  171s
  2193  1108 12916.3820   25  654 12976.0000 12827.7659  1.14%  1011  177s
  2253  1104 12894.3483   27  624 12976.0000 12827.7659  1.14%  1024  182s
H 2266  1053                    12960.000000 12827.7659  1.02%  1026  182s
  2318  1048 12923.4522   28  540 12960.0000 12827.7659  1.02%  1024  186s
  2420  1013 12932.8761   36  587 12960.0000 12827.7659  1.02%  1042  194s
  2432  1019     cutoff   36      12960.0000 12839.7626  0.93%  1044  198s
  2480   991 12889.6840   19  644 12960.0000 12840.2912  0.92%  1059  200s

Cutting planes:
  Cover: 6
  Clique: 204
  MIR: 355
  StrongCG: 138
  Flow cover: 161
  GUB cover: 163
  Zero half: 4
  Mod-K: 1
  RLT: 8

Explored 2499 nodes (2686790 simplex iterations) in 200.01 seconds (636.56 work units)
Thread count was 8 (of 8 available processors)

Solution count 10: 12960 12976 12992 ... 13344

Time limit reached
Best objective 1.296000000002e+04, best bound 1.284800000000e+04, gap 0.8642%

Gurobi 9.5.2 (mac64[arm]) logging started Mon May  1 22:16:48 2023

Set parameter LogFile to value "Java/output/special_iterative/scenario_seed_0_nJob_50_machineCount_2/mip_increment_1/log.txt"
Gurobi Optimizer version 9.5.2 build v9.5.2rc0 (mac64[arm])
Thread count: 8 physical cores, 8 logical processors, using up to 8 threads
Optimize a model with 3208 rows, 18444 columns and 218726 nonzeros
Model fingerprint: 0xb8f9099d
Variable types: 0 continuous, 18444 integer (18444 binary)
Coefficient statistics:
  Matrix range     [1e+00, 3e+02]
  Objective range  [2e+02, 1e+06]
  Bounds range     [1e+00, 1e+00]
  RHS range        [1e+00, 1e+00]
Found heuristic solution: objective 5804724.0000
Presolve removed 794 rows and 1185 columns
Presolve time: 0.24s
Presolved: 2414 rows, 17259 columns, 205022 nonzeros
Variable types: 0 continuous, 17259 integer (17259 binary)
Found heuristic solution: objective 2236752.0000

Root relaxation: objective 6.705419e+03, 2237 iterations, 0.13 seconds (0.32 work units)

    Nodes    |    Current Node    |     Objective Bounds      |     Work
 Expl Unexpl |  Obj  Depth IntInf | Incumbent    BestBd   Gap | It/Node Time

     0     0 6705.41860    0   92 2236752.00 6705.41860   100%     -    0s
H    0     0                    1400912.0000 6705.41860   100%     -    0s
H    0     0                    357528.00000 6705.41860  98.1%     -    0s
H    0     0                    44812.000000 6705.41860  85.0%     -    0s
H    0     0                    13608.000000 6705.41860  50.7%     -    0s
     0     0 6725.30402    0  125 13608.0000 6725.30402  50.6%     -    0s
     0     0 6725.30402    0   98 13608.0000 6725.30402  50.6%     -    1s
H    0     0                    13600.000000 6725.30402  50.5%     -    1s
     0     0 6758.32296    0  141 13600.0000 6758.32296  50.3%     -    1s
H    0     0                    13592.000000 6758.32296  50.3%     -    1s
     0     0 6759.15276    0  127 13592.0000 6759.15276  50.3%     -    1s
     0     0 6759.15276    0  129 13592.0000 6759.15276  50.3%     -    1s
     0     0 6791.37240    0  189 13592.0000 6791.37240  50.0%     -    1s
     0     0 6796.35721    0  195 13592.0000 6796.35721  50.0%     -    1s
     0     0 6796.68104    0  197 13592.0000 6796.68104  50.0%     -    1s
     0     0 6796.79476    0  202 13592.0000 6796.79476  50.0%     -    1s
     0     0 6796.80331    0  204 13592.0000 6796.80331  50.0%     -    1s
     0     0 6852.34791    0  217 13592.0000 6852.34791  49.6%     -    1s
     0     0 6869.30607    0  211 13592.0000 6869.30607  49.5%     -    1s
     0     0 6873.28518    0  228 13592.0000 6873.28518  49.4%     -    1s
     0     0 6874.89521    0  238 13592.0000 6874.89521  49.4%     -    1s
     0     0 6875.03582    0  237 13592.0000 6875.03582  49.4%     -    1s
     0     0 6875.10114    0  239 13592.0000 6875.10114  49.4%     -    1s
     0     0 6875.10317    0  239 13592.0000 6875.10317  49.4%     -    1s
H    0     0                    13588.000000 6875.10317  49.4%     -    2s
     0     0 6909.93840    0  262 13588.0000 6909.93840  49.1%     -    2s
     0     0 6919.03007    0  250 13588.0000 6919.03007  49.1%     -    2s
     0     0 6920.67651    0  267 13588.0000 6920.67651  49.1%     -    2s
     0     0 6921.08405    0  261 13588.0000 6921.08405  49.1%     -    2s
     0     0 6921.08937    0  263 13588.0000 6921.08937  49.1%     -    2s
     0     0 6935.46806    0  235 13588.0000 6935.46806  49.0%     -    2s
H    0     0                    12588.000000 6935.46806  44.9%     -    2s
     0     0 6936.69995    0  237 12588.0000 6936.69995  44.9%     -    2s
     0     0 6937.41664    0  243 12588.0000 6937.41664  44.9%     -    2s
     0     0 6937.52702    0  250 12588.0000 6937.52702  44.9%     -    2s
H    0     0                    12584.000000 6937.52702  44.9%     -    2s
     0     0 6954.47300    0  285 12584.0000 6954.47300  44.7%     -    2s
     0     0 6956.55101    0  291 12584.0000 6956.55101  44.7%     -    2s
     0     0 6957.18264    0  287 12584.0000 6957.18264  44.7%     -    2s
     0     0 6957.32092    0  297 12584.0000 6957.32092  44.7%     -    2s
     0     0 6961.41799    0  248 12584.0000 6961.41799  44.7%     -    2s
     0     0 6961.43403    0  249 12584.0000 6961.43403  44.7%     -    2s
     0     0 6962.56344    0  287 12584.0000 6962.56344  44.7%     -    2s
     0     0 6962.56344    0  261 12584.0000 6962.56344  44.7%     -    2s
     0     2 6963.30489    0  255 12584.0000 6963.30489  44.7%     -    3s
H   12    14                    8692.0000000 6991.25930  19.6%   538    3s
H   30    38                    7368.0000000 7009.01959  4.87%   577    3s
H   71    56                    7360.0000000 7019.85438  4.62%   450    4s
H   72    56                    7240.0000000 7019.85438  3.04%   444    4s
H   75    56                    7160.0000000 7019.85438  1.96%   453    4s
H  114    46                    7104.0000000 7019.85438  1.18%   351    4s
H  157    28                    7096.0000000 7051.69347  0.62%   277    4s

Cutting planes:
  Gomory: 1
  Cover: 15
  Clique: 58
  MIR: 109
  StrongCG: 67
  GUB cover: 65
  Zero half: 15
  RLT: 12

Explored 228 nodes (60020 simplex iterations) in 4.49 seconds (9.13 work units)
Thread count was 8 (of 8 available processors)

Solution count 10: 7096 7104 7160 ... 13588

Optimal solution found (tolerance 1.00e-04)
Best objective 7.096000000000e+03, best bound 7.096000000000e+03, gap 0.0000%

Gurobi 9.5.2 (mac64[arm]) logging started Mon May  1 22:16:53 2023

Set parameter LogFile to value "Java/output/special_iterative/scenario_seed_0_nJob_50_machineCount_2/mip_increment_1/log.txt"
Gurobi Optimizer version 9.5.2 build v9.5.2rc0 (mac64[arm])
Thread count: 8 physical cores, 8 logical processors, using up to 8 threads
Optimize a model with 3216 rows, 15672 columns and 189514 nonzeros
Model fingerprint: 0x807fd18c
Variable types: 0 continuous, 15672 integer (15672 binary)
Coefficient statistics:
  Matrix range     [1e+00, 3e+02]
  Objective range  [1e+02, 6e+05]
  Bounds range     [1e+00, 1e+00]
  RHS range        [1e+00, 1e+00]
Found heuristic solution: objective 2466952.0000
Presolve removed 1372 rows and 1422 columns
Presolve time: 0.22s
Presolved: 1844 rows, 14250 columns, 172502 nonzeros
Variable types: 0 continuous, 14250 integer (14250 binary)
Found heuristic solution: objective 2347819.0000

Root relaxation: objective 3.191661e+05, 2378 iterations, 0.11 seconds (0.22 work units)

    Nodes    |    Current Node    |     Objective Bounds      |     Work
 Expl Unexpl |  Obj  Depth IntInf | Incumbent    BestBd   Gap | It/Node Time

     0     0 319166.119    0  108 2347819.00 319166.119  86.4%     -    0s
H    0     0                    837288.00000 319166.119  61.9%     -    0s
H    0     0                    715855.00000 319166.119  55.4%     -    0s
H    0     0                    700082.00000 319166.119  54.4%     -    0s
H    0     0                    406288.00000 319166.119  21.4%     -    0s
     0     0 320877.793    0  126 406288.000 320877.793  21.0%     -    0s
H    0     0                    404255.00000 320877.793  20.6%     -    0s
     0     0 321935.190    0  147 404255.000 321935.190  20.4%     -    0s
H    0     0                    394561.00000 321935.190  18.4%     -    0s
     0     0 323045.831    0  181 394561.000 323045.831  18.1%     -    1s
H    0     0                    394150.00000 323045.831  18.0%     -    1s
     0     0 323535.545    0  173 394150.000 323535.545  17.9%     -    1s
     0     0 323576.077    0  178 394150.000 323576.077  17.9%     -    1s
     0     0 323576.656    0  191 394150.000 323576.656  17.9%     -    1s
H    0     0                    335307.00000 323576.656  3.50%     -    1s
H    0     0                    335194.00000 323576.656  3.47%     -    1s
H    0     0                    332580.00000 323576.656  2.71%     -    1s
H    0     0                    331738.00000 323576.656  2.46%     -    1s
     0     0 324541.969    0  164 331738.000 324541.969  2.17%     -    1s
     0     0 324541.969    0  116 331738.000 324541.969  2.17%     -    1s
H    0     0                    331467.00000 324541.969  2.09%     -    1s
     0     0 324541.969    0  183 331467.000 324541.969  2.09%     -    2s
     0     0 324541.969    0  177 331467.000 324541.969  2.09%     -    2s
     0     0 324579.517    0  163 331467.000 324579.517  2.08%     -    2s
     0     0 324591.942    0  179 331467.000 324591.942  2.07%     -    2s
     0     0 324592.149    0  177 331467.000 324592.149  2.07%     -    2s
     0     0 325020.546    0  194 331467.000 325020.546  1.94%     -    2s
     0     0 325035.940    0  203 331467.000 325035.940  1.94%     -    2s
     0     0 325037.810    0  205 331467.000 325037.810  1.94%     -    2s
     0     0 325039.209    0  204 331467.000 325039.209  1.94%     -    2s
     0     0 325462.139    0  212 331467.000 325462.139  1.81%     -    2s
     0     0 325552.911    0  240 331467.000 325552.911  1.78%     -    2s
     0     0 325620.988    0  234 331467.000 325620.988  1.76%     -    2s
     0     0 325621.200    0  236 331467.000 325621.200  1.76%     -    2s
     0     0 325666.089    0  240 331467.000 325666.089  1.75%     -    2s
     0     0 325688.243    0  242 331467.000 325688.243  1.74%     -    2s
     0     0 325702.587    0  252 331467.000 325702.587  1.74%     -    2s
     0     0 325702.854    0  255 331467.000 325702.854  1.74%     -    2s
     0     0 325703.865    0  259 331467.000 325703.865  1.74%     -    2s
H    0     0                    330085.00000 325703.865  1.33%     -    2s
     0     0 325704.093    0  262 330085.000 325704.093  1.33%     -    2s
     0     0 325716.546    0  257 330085.000 325716.546  1.32%     -    2s
     0     0 325731.532    0  270 330085.000 325731.532  1.32%     -    2s
     0     0 325733.235    0  272 330085.000 325733.235  1.32%     -    2s
     0     0 325749.062    0  274 330085.000 325749.062  1.31%     -    2s
     0     0 325749.062    0  255 330085.000 325749.062  1.31%     -    2s
H    0     0                    330083.00000 325803.876  1.30%     -    2s
     0     2 325803.876    0  254 330083.000 325803.876  1.30%     -    2s
H   32    36                    326922.00000 326650.769  0.08%   262    3s
H   76    17                    326789.00000 326730.974  0.02%   134    3s
H   82    17                    326788.00000 326730.974  0.02%   125    3s

Cutting planes:
  Cover: 7
  Clique: 42
  MIR: 55
  StrongCG: 28
  GUB cover: 66
  Zero half: 17
  RLT: 2

Explored 101 nodes (23310 simplex iterations) in 3.34 seconds (5.64 work units)
Thread count was 8 (of 8 available processors)

Solution count 10: 326788 326789 326922 ... 335194

Optimal solution found (tolerance 1.00e-04)
Best objective 3.267880000000e+05, best bound 3.267880000000e+05, gap 0.0000%

Gurobi 9.5.2 (mac64[arm]) logging started Mon May  1 22:16:57 2023

Set parameter LogFile to value "Java/output/special_iterative/scenario_seed_0_nJob_50_machineCount_2/mip_increment_1/log.txt"
Gurobi Optimizer version 9.5.2 build v9.5.2rc0 (mac64[arm])
Thread count: 8 physical cores, 8 logical processors, using up to 8 threads
Optimize a model with 3382 rows, 78300 columns and 980110 nonzeros
Model fingerprint: 0x02d2e3c7
Variable types: 0 continuous, 78300 integer (78300 binary)
Coefficient statistics:
  Matrix range     [1e+00, 3e+02]
  Objective range  [1e+00, 6e+06]
  Bounds range     [1e+00, 1e+00]
  RHS range        [1e+00, 1e+00]

Warning: Completing partial solution with 78150 unfixed non-continuous variables out of 78300
User MIP start produced solution with objective 322940 (0.06s)
Loaded user MIP start with objective 322940

Presolve removed 91 rows and 7283 columns
Presolve time: 1.04s
Presolved: 3291 rows, 71017 columns, 892180 nonzeros
Variable types: 0 continuous, 71017 integer (71017 binary)

Root simplex log...

Iteration    Objective       Primal Inf.    Dual Inf.      Time
   19783    2.0140703e+04   5.514414e+04   0.000000e+00      5s
   39601    2.2570843e+04   2.227771e+04   0.000000e+00     10s
   55333    2.3097977e+04   1.680539e+04   0.000000e+00     15s
   64825    2.3137939e+04   0.000000e+00   0.000000e+00     19s

Root relaxation: objective 2.313794e+04, 64825 iterations, 18.19 seconds (49.55 work units)

    Nodes    |    Current Node    |     Objective Bounds      |     Work
 Expl Unexpl |  Obj  Depth IntInf | Incumbent    BestBd   Gap | It/Node Time

     0     0 23137.9390    0  654 322940.000 23137.9390  92.8%     -   19s
H    0     0                    300474.00000 23137.9390  92.3%     -   20s
H    0     0                    284245.00000 23137.9390  91.9%     -   20s
H    0     0                    269785.00000 23137.9390  91.4%     -   20s
H    0     0                    269669.00000 23232.9858  91.4%     -   32s
H    0     0                    269661.00000 23232.9858  91.4%     -   32s
     0     0 23232.9858    0  806 269661.000 23232.9858  91.4%     -   32s
H    0     0                    264213.00000 23232.9858  91.2%     -   38s
     0     0 23240.2152    0  836 264213.000 23240.2152  91.2%     -   42s
     0     0 23240.2509    0  840 264213.000 23240.2509  91.2%     -   42s
     0     0 23287.4409    0  866 264213.000 23287.4409  91.2%     -   50s
H    0     0                    264207.00000 23287.4409  91.2%     -   50s
H    0     0                    256166.00000 23287.4409  90.9%     -   50s
     0     0 23307.2926    0  916 256166.000 23307.2926  90.9%     -   59s
     0     0 23309.4901    0  907 256166.000 23309.4901  90.9%     -   61s
     0     0 23310.3153    0  948 256166.000 23310.3153  90.9%     -   63s
     0     0 23310.3468    0  945 256166.000 23310.3468  90.9%     -   63s
     0     0 23331.6445    0  964 256166.000 23331.6445  90.9%     -   71s
     0     0 23338.3870    0 1037 256166.000 23338.3870  90.9%     -   89s
     0     0 23338.9118    0 1077 256166.000 23338.9118  90.9%     -   90s
     0     0 23339.0485    0 1073 256166.000 23339.0485  90.9%     -   90s
     0     0 23339.0725    0 1089 256166.000 23339.0725  90.9%     -   91s
     0     0 23369.1926    0 1111 256166.000 23369.1926  90.9%     -  101s
     0     0 23369.1926    0  642 256166.000 23369.1926  90.9%     -  123s
H    0     0                    255175.00000 23369.1926  90.8%     -  124s
     0     0 23369.1926    0  821 255175.000 23369.1926  90.8%     -  132s
     0     0 23369.1926    0  989 255175.000 23369.1926  90.8%     -  142s
     0     0 23377.7835    0 1034 255175.000 23377.7835  90.8%     -  150s
     0     0 23384.6836    0 1077 255175.000 23384.6836  90.8%     -  153s
     0     0 23385.6842    0 1084 255175.000 23385.6842  90.8%     -  154s
     0     0 23385.7749    0 1094 255175.000 23385.7749  90.8%     -  154s
     0     0 23385.7751    0 1089 255175.000 23385.7751  90.8%     -  154s
     0     0 23420.8332    0 1124 255175.000 23420.8332  90.8%     -  162s
     0     0 23437.3757    0 1205 255175.000 23437.3757  90.8%     -  168s
     0     0 23439.8757    0 1212 255175.000 23439.8757  90.8%     -  169s
     0     0 23440.8283    0 1216 255175.000 23440.8283  90.8%     -  170s
     0     0 23441.1992    0 1238 255175.000 23441.1992  90.8%     -  171s
     0     0 23441.3561    0 1229 255175.000 23441.3561  90.8%     -  171s
     0     0 23441.3645    0 1226 255175.000 23441.3645  90.8%     -  172s
     0     0 23477.5628    0 1246 255175.000 23477.5628  90.8%     -  179s
     0     0 23499.6212    0 1275 255175.000 23499.6212  90.8%     -  194s
     0     0 23505.3944    0 1298 255175.000 23505.3944  90.8%     -  197s
     0     0 23506.7573    0 1319 255175.000 23506.7573  90.8%     -  198s
     0     0 23506.8080    0 1328 255175.000 23506.8080  90.8%     -  199s
     0     0 23535.8685    0 1311 255175.000 23535.8685  90.8%     -  207s
     0     0 23550.3874    0 1328 255175.000 23550.3874  90.8%     -  213s
     0     0 23555.2985    0 1358 255175.000 23555.2985  90.8%     -  215s
     0     0 23556.0795    0 1369 255175.000 23556.0795  90.8%     -  217s
     0     0 23556.1663    0 1381 255175.000 23556.1663  90.8%     -  217s
     0     0 23612.8464    0 1333 255175.000 23612.8464  90.7%     -  225s
     0     0 23621.9493    0 1354 255175.000 23621.9493  90.7%     -  242s
     0     0 23636.0075    0 1385 255175.000 23636.0075  90.7%     -  247s
     0     0 23639.2251    0 1411 255175.000 23639.2251  90.7%     -  249s
     0     0 23640.1227    0 1406 255175.000 23640.1227  90.7%     -  251s
     0     0 23640.1504    0 1424 255175.000 23640.1504  90.7%     -  251s
H    0     0                    254278.00000 23640.1504  90.7%     -  258s
     0     0 23663.8336    0 1417 254278.000 23663.8336  90.7%     -  259s
H    0     0                    231975.00000 23663.8336  89.8%     -  259s
     0     0 23671.9321    0 1491 231975.000 23671.9321  89.8%     -  264s
     0     0 23677.6705    0 1506 231975.000 23677.6705  89.8%     -  269s
     0     0 23678.9227    0 1500 231975.000 23678.9227  89.8%     -  271s
     0     0 23679.2376    0 1497 231975.000 23679.2376  89.8%     -  272s
     0     0 23679.3976    0 1515 231975.000 23679.3976  89.8%     -  272s
     0     0 23722.3813    0 1518 231975.000 23722.3813  89.8%     -  282s
H    0     0                    231972.00000 23722.3813  89.8%     -  282s
     0     0 23733.7757    0 1544 231972.000 23733.7757  89.8%     -  289s
     0     0 23737.4200    0 1560 231972.000 23737.4200  89.8%     -  292s
     0     0 23738.3059    0 1562 231972.000 23738.3059  89.8%     -  294s
     0     0 23738.9442    0 1563 231972.000 23738.9442  89.8%     -  295s
     0     0 23739.0950    0 1572 231972.000 23739.0950  89.8%     -  295s
     0     0 23768.0723    0 1556 231972.000 23768.0723  89.8%     -  306s
     0     0 23775.9157    0 1557 231972.000 23775.9157  89.8%     -  311s
     0     0 23780.9905    0 1588 231972.000 23780.9905  89.7%     -  315s
     0     0 23782.5044    0 1591 231972.000 23782.5044  89.7%     -  317s
     0     0 23782.9002    0 1619 231972.000 23782.9002  89.7%     -  318s
     0     0 23783.1744    0 1632 231972.000 23783.1744  89.7%     -  319s
     0     0 23820.1384    0 1576 231972.000 23820.1384  89.7%     -  330s
     0     0 23824.5001    0 1603 231972.000 23824.5001  89.7%     -  383s
     0     0 23826.8957    0 1615 231972.000 23826.8957  89.7%     -  386s
     0     0 23828.3280    0 1631 231972.000 23828.3280  89.7%     -  389s
     0     0 23828.7679    0 1655 231972.000 23828.7679  89.7%     -  389s
     0     0 23828.7795    0 1662 231972.000 23828.7795  89.7%     -  390s
     0     0          -    0      231972.000 23828.7795  89.7%     -  391s

Cutting planes:
  Clique: 273
  MIR: 248
  StrongCG: 123
  GUB cover: 260
  Mod-K: 1
  RLT: 1

Explored 1 nodes (485911 simplex iterations) in 391.01 seconds (1010.98 work units)
Thread count was 8 (of 8 available processors)

Solution count 10: 231972 231975 254278 ... 269785

Time limit reached
Best objective 2.319720000000e+05, best bound 2.382877950864e+04, gap 89.7277%
